2357.97
0 1 4 3 2 5 6 10 14 17 0
0 9 8 7 32 28 30 27 50 58 43 51 11 16 23 13 21 19 18 12 0
0 72 69 22 20 37 35 38 25 31 29 42 44 57 46 0
0 26 24 55 59 0
0 60 66 67 39 41 34 0
0 33 36 45 48 52 49 0
0 53 40 54 47 56 0
0 61 62 64 63 68 65 15 0
0 75 74 73 71 70 0
